(declare-fun e () String)
(declare-fun c () String)
(declare-fun g () String)
(declare-fun b () String)
(declare-fun f () String)
(declare-fun a () String)
(declare-fun h () String)
(assert (= (str.++ "a" a "haec") h))
(assert (= c (str.++ e e "bgd" f)))
(assert (= (str.++ b "cf" g) (str.++ f a)))

(check-sat)
